&projwfc
 outdir='./'
 prefix='test'
 DeltaE=0.015,
/
