&CONTROL
  calculation = 'scf',
  pseudo_dir = './',
  outdir='./'
  prefix = 'test',
etot_conv_thr=1.D-7,
forc_conv_thr=2.D-6,
nstep =200,

/
&SYSTEM
  ibrav = 4,
  celldm(1) = 22.88689,
  celldm(3) = 2.16601,
  nat = 88,
  ntyp = 6,
  ecutwfc = 40,
  ecutrho = 320,
  occupations = 'smearing',
  smearing = 'gaussian',
  degauss = 0.01,
  input_dft = 'pbe',
  vdw_corr = 'grimme-d2',
  london_s6 = 0.5,
  nbnd = 300,
/
&ELECTRONS
  electron_maxstep = 100,
  diagonalization = 'david',
  conv_thr = 1.0d-8,
  mixing_beta = 0.3,
/
&IONS
/
&CELL
  press = 0.0,
/
ATOMIC_SPECIES
Cu  63.546    cu_pbe_v1.2.uspp.F.UPF
In  114.818   in_pbe_v1.4.uspp.F.UPF
P   30.974    p_pbe_v1.5.uspp.F.UPF
S  32.065    s_pbe_v1.4.uspp.F.UPF
O  15.999    o_pbe_v1.2.uspp.F.UPF
H   1.0078    h_pbe_v1.4.uspp.F.UPF


ATOMIC_POSITIONS (crystal)
Cu               0.3599757178        0.1778158635        0.5250039420
Cu               0.3600980233        0.6777715528        0.5250609136
Cu               0.8598704259        0.1774614167        0.5249510315
Cu               0.8598709617        0.6775147881        0.5249148753
In               1.0273827938        0.0118253186        0.4649391423
In               1.0273261961        0.5118412099        0.4649389587
In               0.5272710990        0.0118648315        0.4649016140
In               0.5273188999        0.5118584175        0.4649096563
P                0.1939218881        0.3443137658        0.4292662243
P                0.1938992357        0.8442907400        0.4292398156
P                0.6939172656        0.3443373765        0.4292377050
P                0.6939206963        0.8443326570        0.4292437566
P                0.1942515194        0.3444606149        0.5149768292
P                0.1942472691        0.8444167421        0.5149545824
P                0.6942472210        0.3443596581        0.5149496721
P                0.6942768805        0.8443868486        0.5149526596
S                0.0273929688        0.1883092991        0.4090553260
S                0.0273882323        0.6883014128        0.4090036610
S                0.5273795315        0.1883954119        0.4089892091
S                0.5273602679        0.6883688123        0.4090263514
S                0.8503282768        0.8338557180        0.4094853241
S                0.8503304944        0.3338706684        0.4094822538
S                0.3503243190        0.8338229302        0.4094948749
S                0.3503171159        0.3337712366        0.4095317867
S                0.2043272649        1.0110320936        0.4093995717
S                0.2043254826        0.5110290337        0.4094076588
S                0.7043328254        1.0110796549        0.4094218920
S                0.7043895258        0.5111242819        0.4094368956
S                0.8630490561        0.9987612476        0.5387377043
S                0.8629680157        0.4987393753        0.5387682267
S                0.3629576345        0.9988827911        0.5387297340
S                0.3630251933        0.4988567264        0.5387497718
S                0.1789578163        0.1755473529        0.5392700130
S                0.1789897411        0.6754927584        0.5392260159
S                0.6789050591        0.1753587903        0.5391713626
S                0.6789532532        0.6754250682        0.5392030595
S                0.0402728715        0.8587475510        0.5396887776
S                0.0402476212        0.3587634990        0.5396900553
S                0.5404268331        0.8588471825        0.5397433501
S                0.5404012112        0.3588264160        0.5397414645
O                0.3259554007        0.1485855453        0.7054613805
O                0.0596602026        0.1360306599        0.7041703506
O                0.1840114610        0.3882096998        0.6654728780
O                0.3979874267        0.3823771904        0.6558241640
O                0.8261141619        0.1485196845        0.7054268566
O                0.5595529740        0.1358525744        0.7040983089
O                0.6844484342        0.3880796364        0.6653835015
O                0.8987156823        0.3826708500        0.6559713794
O                0.3261442780        0.6484945056        0.7054496636
O                0.0597469958        0.6363794418        0.7042331226
O                0.1846014820        0.8885497955        0.6654247914
O                0.3983757658        0.8823427080        0.6558324776
O                0.8258590994        0.6483868833        0.7053986714
O                0.5597197708        0.6361233933        0.7039606321
O                0.6843959758        0.8884506494        0.6653462586
O                0.8984814077        0.8827066227        0.6559450794
H                0.4019803702        0.1440913671        0.7164256338
H                0.2717724755        0.0640277177        0.6890632067
H                0.1297771287        0.1381944318        0.7239900491
H                0.1004966492        0.2226202813        0.6879966479
H                0.2665423792        0.3875827426        0.6577042908
H                0.1454105593        0.3882170775        0.6324693549
H                0.3826866567        0.3051273112        0.6754554070
H                0.4618602162        0.4594470783        0.6743647590
H                0.9020421023        0.1438285238        0.7163798039
H                0.7718330006        0.0640714637        0.6889689975
H                0.6295311418        0.1379413448        0.7239892324
H                0.6005643488        0.2224305988        0.6879094847
H                0.7671119193        0.3875997026        0.6577444600
H                0.6461580782        0.3881250202        0.6323087423
H                0.8832355744        0.3052975083        0.6755636947
H                0.9623460296        0.4596323852        0.6746250184
H                0.4021874307        0.6438593630        0.7162828381
H                0.2716819814        0.5639581812        0.6890928968
H                0.1297100887        0.6385017288        0.7241430782
H                0.1007307276        0.7229732019        0.6880578967
H                0.2670819972        0.8877612722        0.6576976983
H                0.1460758147        0.8884991787        0.6324004755
H                0.3829299598        0.8049852713        0.6754337072
H                0.4621634480        0.9593131965        0.6744372921
H                0.9018933290        0.6439214238        0.7163853703
H                0.7717233402        0.5638557181        0.6889862252
H                0.6297921387        0.6381757279        0.7237710824
H                0.6006331444        0.7227448639        0.6878145293
H                0.7669785212        0.8878340234        0.6576854920
H                0.6460161698        0.8884688014        0.6322879551
H                0.8830038843        0.8053491903        0.6755349437
H                0.9621546251        0.9596882907        0.6745892209



K_POINTS {automatic}
6 6 1 1 1 1