&CONTROL
  calculation = 'scf',
  pseudo_dir = './',
  outdir='./'
  prefix = 'test',
etot_conv_thr=1.D-7,
forc_conv_thr=2.D-6,
nstep =200,

/
&SYSTEM
  ibrav = 4,
  celldm(1) = 22.88689,
  celldm(3) = 2.16601,
  nat = 49,
  ntyp = 8,
  ecutwfc = 40,
  ecutrho = 320,
  occupations = 'smearing',
  smearing = 'gaussian',
  degauss = 0.01,
  input_dft = 'pbe',
  vdw_corr = 'grimme-d2',
  london_s6 = 0.5,
  nbnd = 250,
/
&ELECTRONS
  electron_maxstep = 100,
  diagonalization = 'david',
  conv_thr = 1.0d-8,
  mixing_beta = 0.3,
/
&IONS
/
&CELL
  press = 0.0,
/
ATOMIC_SPECIES
Cu  63.546    cu_pbe_v1.2.uspp.F.UPF
In  114.818   in_pbe_v1.4.uspp.F.UPF
P   30.974    p_pbe_v1.5.uspp.F.UPF
S  32.065    s_pbe_v1.4.uspp.F.UPF
C 12.011 c_pbe_v1.2.uspp.F.UPF
O  15.999    o_pbe_v1.2.uspp.F.UPF
N  14.0067   n_pbe_v1.2.uspp.F.UPF
H  1.0078    h_pbe_v1.4.uspp.F.UPF

ATOMIC_POSITIONS (crystal)
Cu               0.3400359569        0.1589140788        0.4359767977
Cu               0.3389247657        0.6588416906        0.4356703269
Cu               0.8394912117        0.1591728821        0.4357866258
Cu               0.8397215546        0.6591633366        0.4355981748
In               1.0074837197       -0.0073754841        0.4958680675
In               1.0070425562        0.4929170885        0.4947474161
In               0.5051059709       -0.0080276244        0.4958765622
In               0.5075256779        0.4925083115        0.4947328818
P                0.1732648803        0.3255426265        0.4446347821
P                0.1732873637        0.8258961139        0.4449084104
P                0.6733510059        0.3256465283        0.4441930687
P                0.6732715793        0.8259595642        0.4454454352
P                0.1738264368        0.3261708000        0.5304265393
P                0.1740926521        0.8261605943        0.5307796926
P                0.6739303834        0.3258407290        0.5299863514
P                0.6734393035        0.8258111527        0.5312825107
S                0.0185521767        0.1563567507        0.4213425163
S                0.0190526585        0.6572144184        0.4207139796
S                0.5189734627        0.1565075239        0.4207092372
S                0.5187609058        0.6572344882        0.4214246791
S                0.8421082931        0.8407509053        0.4214675425
S                0.8424196585        0.3406112239        0.4203739330
S                0.3421791482        0.8406949196        0.4209098346
S                0.3419938926        0.3400415083        0.4206634246
S                0.1584321879        0.9801555367        0.4211839549
S                0.1582707120        0.4794656740        0.4204740049
S                0.6580483651        0.9798566522        0.4216642456
S                0.6587693730        0.4800077100        0.4202792400
S                0.8299755016        0.9923244800        0.5513232794
S                0.8294468753        0.4928500372        0.5501297597
S                0.3293837258        0.9918993097        0.5517689715
S                0.3301080386        0.4934922433        0.5500586822
S                0.1849025500        0.1707364129        0.5511536508
S                0.1840800231        0.6692724157        0.5503376730
S                0.6850636453        0.1702346207        0.5501188934
S                0.6838150611        0.6692161616        0.5510495370
S                0.0069527677        0.8148676276        0.5508444114
S                0.0073028432        0.3159220569        0.5505923137
S                0.5073402762        0.8157985576        0.5516884976
S                0.5063340222        0.3142042327        0.5497774719
C                0.3132247708        0.2197167685        0.6773434651
C                0.1883985111        0.1838953471        0.7038488502
O                0.3382703518        0.1391193994        0.6614420556
N                0.3957830100        0.3476017526        0.6719089987
H                0.3698679225        0.4133172343        0.6808015586
H                0.4750362259        0.3757565846        0.6499076816
H                0.1650747515        0.1046928562        0.7302856270
H                0.1126165040        0.1492534941        0.6747139476
H                0.1897121669        0.2635805052        0.7246415261


K_POINTS {automatic}
6 6 1 1 1 1