&CONTROL
  calculation = 'nscf',
  pseudo_dir = './',
  outdir='./'
  prefix = 'test',
etot_conv_thr=1.D-7,
forc_conv_thr=2.D-6,
nstep =200,

/
&SYSTEM
  ibrav = 4,
  celldm(1) = 22.88689,
  celldm(3) = 2.16601,
  nat = 63,
  ntyp = 8,
  ecutwfc = 40,
  ecutrho = 320,
  occupations = 'smearing',
  smearing = 'gaussian',
  degauss = 0.01,
  input_dft = 'pbe',
  vdw_corr = 'grimme-d2',
  london_s6 = 0.5,
  nbnd = 260,
/
&ELECTRONS
  electron_maxstep = 100,
  diagonalization = 'cg',
  conv_thr = 1.0d-8,
  mixing_beta = 0.2,
/
&IONS
/
&CELL
  press = 0.0,
/
ATOMIC_SPECIES
Cu  63.546    cu_pbe_v1.2.uspp.F.UPF
In  114.818   in_pbe_v1.4.uspp.F.UPF
P   30.974    p_pbe_v1.5.uspp.F.UPF
S  32.065    s_pbe_v1.4.uspp.F.UPF
C 12.011 c_pbe_v1.2.uspp.F.UPF
O  15.999    o_pbe_v1.2.uspp.F.UPF
N  14.0067   n_pbe_v1.2.uspp.F.UPF
H  1.0078    h_pbe_v1.4.uspp.F.UPF


ATOMIC_POSITIONS (crystal)
Cu               0.3284858217        0.1580233720        0.4305272512
Cu               0.3282209749        0.6580750337        0.4303437466
Cu               0.8284733966        0.1579325198        0.4305536860
Cu               0.8286195799        0.6577960284        0.4305437901
In               0.9951664060       -0.0088746768        0.4896509247
In               0.9952013799        0.4913728209        0.4891424188
In               0.4954519228       -0.0094445967        0.4899567732
In               0.4952286826        0.4915008843        0.4897464408
P                0.1618666090        0.3245317101        0.4388305068
P                0.1619233840        0.8247947843        0.4388293090
P                0.6616392804        0.3244229408        0.4392968113
P                0.6618288593        0.8246179953        0.4394794782
P                0.1619720798        0.3246736644        0.5246228692
P                0.1614865105        0.8237909501        0.5246405183
P                0.6620689116        0.3247905070        0.5251150737
P                0.6616550798        0.8250640011        0.5253278289
S                0.0073833030        0.1555124172        0.4151992017
S                0.0077153745        0.6560253149        0.4148079780
S                0.5073901182        0.1553396054        0.4156667266
S                0.5074495966        0.6557877472        0.4156022944
S                0.8306334757        0.8390262678        0.4155786968
S                0.8304807281        0.3390588512        0.4152710407
S                0.3309970544        0.8396051246        0.4151541565
S                0.3309581457        0.3393345709        0.4151690919
S                0.1472216534        0.9791888776        0.4152395771
S                0.1472589905        0.4787383436        0.4148529817
S                0.6472702796        0.9788203366        0.4154828996
S                0.6471633978        0.4788400150        0.4154896621
S                0.8183640160        0.9915713811        0.5452332994
S                0.8182381713        0.4917167197        0.5449224532
S                0.3174831455        0.9903313305        0.5452164676
S                0.3175774385        0.4915904353        0.5449159133
S                0.1728166375        0.1687581572        0.5448625148
S                0.1731587609        0.6680508080        0.5442374084
S                0.6724714714        0.1687452141        0.5454228785
S                0.6721714246        0.6687456075        0.5454434555
S               -0.0050019768        0.8132844611        0.5449483468
S               -0.0047908637        0.3140224763        0.5447507175
S                0.4955527766        0.8145590384        0.5460610882
S                0.4952684751        0.3141092455        0.5452190699
C                0.2998818076        0.6524256021        0.7507453066
C                0.3349410810        0.7223284309        0.6995486791
C                0.2315560881        0.7554128406        0.6847429583
C                0.2138773704        0.8373364003        0.7233461009
C                0.2907399855        0.9704103310        0.7218720526
C                0.1227138443        0.7822423860        0.7621821016
C                0.2771173148        0.0467139294        0.7583344421
C                0.1089026209        0.8582838196        0.7987557026
C                0.1861483446        0.9907542997        0.7969534710
O                0.3832501974        0.7209118342        0.7884734249
O                0.2084256539        0.5463834891        0.7573358669
N                0.3457397826        0.6450342877        0.6591103793
H                0.1413378954        0.6647201772        0.6792608218
H                0.2644496397        0.5567887648        0.6585141563
H                0.0620670269        0.6783331673        0.7635931223
H                0.0369735320        0.8137172907        0.8287324419
H                0.4273385017        0.8111863923        0.7034961459
H                0.2599231300        0.8038214770        0.6474715038
H                0.3616086888        0.0145661396        0.6914309370
H                0.3374687506        0.1504937131        0.7564847360
H                0.4205615355        0.6298129544        0.6660637228
H                0.3512317544        0.6685372479        0.8196966115
H                0.1750334294        1.0504988214        0.8254447875



K_POINTS {automatic}
8 8 1 1 1 1