 &bands
   prefix  = 'test'
   filband = 'bands.dat'
   outdir = './',
 /
