&CONTROL
  calculation = 'nscf',
  pseudo_dir = './',
  outdir='./'
  prefix = 'test',
etot_conv_thr=1.D-7,
forc_conv_thr=2.D-6,
nstep =200,

/
&SYSTEM
  ibrav = 4,
  celldm(1) = 22.88689,
  celldm(3) = 2.16601,
  nat = 49,
  ntyp = 8,
  ecutwfc = 40,
  ecutrho = 320,
  occupations = 'smearing',
  smearing = 'gaussian',
  degauss = 0.01,
  input_dft = 'pbe',
  vdw_corr = 'grimme-d2',
  london_s6 = 0.5,
  nbnd = 250,
/
&ELECTRONS
  electron_maxstep = 100,
  diagonalization = 'cg',
  conv_thr = 1.0d-8,
  mixing_beta = 0.2,
/
&IONS
/
&CELL
  press = 0.0,
/
ATOMIC_SPECIES
Cu  63.546    cu_pbe_v1.2.uspp.F.UPF
In  114.818   in_pbe_v1.4.uspp.F.UPF
P   30.974    p_pbe_v1.5.uspp.F.UPF
S  32.065    s_pbe_v1.4.uspp.F.UPF
C 12.011 c_pbe_v1.2.uspp.F.UPF
O  15.999    o_pbe_v1.2.uspp.F.UPF
N  14.0067   n_pbe_v1.2.uspp.F.UPF
H  1.0078    h_pbe_v1.4.uspp.F.UPF


ATOMIC_POSITIONS (crystal)
Cu               0.3368554269        0.1574058350        0.5554710998
Cu               0.3374210451        0.6585850934        0.5372562469
Cu               0.8366277599        0.1581095984        0.5372633016
Cu               0.8382786834        0.6590856660        0.5371555490
In               1.0055762401       -0.0072019882        0.4780958215
In               1.0049584167        0.4927627611        0.4776462533
In               0.5021684507       -0.0073503361        0.4785149054
In               0.5037593032        0.4913102913        0.4766984833
P                0.1705225002        0.3252009910        0.4421268889
P                0.1708908805        0.8255399052        0.4430312134
P                0.6715730542        0.3256225630        0.4425657592
P                0.6708381596        0.8262534777        0.4430644528
P                0.1700168392        0.3246560631        0.5279706359
P                0.1713010951        0.8253039316        0.5289200559
P                0.6718319031        0.3260315318        0.5284473491
P                0.6705044219        0.8252086047        0.5288183541
S                0.0037681969        0.1689461014        0.4222599896
S                0.0038764279        0.6698478329        0.4227966991
S                0.5049162754        0.1701429581        0.4223804643
S                0.5043343550        0.6702572941        0.4224966676
S                0.8269652111        0.8157898808        0.4228379838
S                0.8276427475        0.3149557495        0.4225417137
S                0.3266644783        0.8142960384        0.4229237466
S                0.3262375851        0.3143813037        0.4217522905
S                0.1821083098        0.9922039583        0.4227303713
S                0.1815439065        0.4921355811        0.4220560448
S                0.6808935464        0.9929438664        0.4234815308
S                0.6830130216        0.4927773204        0.4223657914
S                0.8395174287        0.9793565693        0.5526288001
S                0.8405885921        0.4800969109        0.5523526388
S                0.3407494399        0.9764877496        0.5536019212
S                0.3393897698        0.4791170272        0.5515723319
S                0.1527374806        0.1556872405        0.5527731620
S                0.1554484458        0.6551590507        0.5521151135
S                0.6559229302        0.1570287319        0.5527497317
S                0.6561620052        0.6557513498        0.5518609226
S                0.0171889071        0.8403297819        0.5527148202
S                0.0158939984        0.3400388682        0.5516355864
S                0.5164289646        0.8395916345        0.5529273875
S                0.5175259529        0.3421238772        0.5512948004
C                0.3140410952        0.2239429388        0.6753685106
C                0.2101862752        0.1838631588        0.7149258178
O                0.3172484161        0.1447769569        0.6462805322
N                0.4013215105        0.3499892755        0.6731417125
H                0.3933681194        0.4148171992        0.6951888772
H                0.4684275858        0.3823135854        0.6448283121
H                0.1983201133        0.0986135931        0.7348224768
H                0.1199921750        0.1565307905        0.6948908355
H                0.2284979504        0.2589736334        0.7428711619

K_POINTS {automatic}
8 8 1 1 1 1